35670 41245 
35791 41213 
37596 40892 
36930 41050 
36576 41159 
38055 40715 
36849 41116 
37522 40949 
37287 40961 
36064 41170 
39436 39929 
38416 40601 
37873 40753 
38660 40563 
39643 39791 
37825 40769 
38157 40639 
38213 40608 
